words_hard_train/4619.qaiger
aag 61 15 0 1 46
2
4
8
10
16
20
24
32
44
50
58
62
68
72
106
123
6 3 5
12 9 11
14 6 12
18 14 17
22 18 21
26 22 25
28 23 24
30 27 29
34 22 33
36 14 33
38 36 17
40 39 20
42 35 41
46 42 45
48 44 20
52 50 16
54 49 53
56 54 39
60 58 2
64 62 4
66 61 65
70 68 8
74 72 10
76 71 75
78 73 11
80 77 79
82 59 3
84 80 83
86 66 85
88 63 5
90 87 89
92 37 16
94 93 51
96 90 95
98 56 97
100 47 99
102 31 101
104 22 32
108 104 107
110 102 109
112 30 100
114 108 112
116 111 115
118 105 106
120 118 113
122 116 121
i0 2 y1[3]
i1 2 y1[4]
i2 2 y1[1]
i3 2 y1[2]
i4 2 y1[5]
i5 2 y1[6]
i6 2 y1[7]
i7 2 y1[0]
i8 1 x1[1]
i9 1 x1[2]
i10 1 x1[4]
i11 1 x1[3]
i12 1 x1[6]
i13 1 x1[5]
i14 1 x1[0]
o0 bv[0]
c
simplified
  <
    or
      1
      reverse
        1 x1
    subtract
      1
      2 y1
