words_hard_train/4619.qaiger.qdimacs
p cnf 61 139
a 34 36 53 22 25 29 31 0
e 1 2 3 4 5 6 7 8 9 10 11 12 13 14 15 16 17 18 19 20 21 23 24 26 27 28 30 32 33 35 37 38 39 40 41 42 43 44 45 46 47 48 49 50 51 52 54 55 56 57 58 59 60 61 0
1 2 3 0
-1 -3 0
-2 -3 0
4 5 6 0
-4 -6 0
-5 -6 0
-3 -6 7 0
3 -7 0
6 -7 0
-7 8 9 0
7 -9 0
-8 -9 0
-9 10 11 0
9 -11 0
-10 -11 0
-11 12 13 0
11 -13 0
-12 -13 0
11 -12 14 0
-11 -14 0
12 -14 0
13 14 15 0
-13 -15 0
-14 -15 0
-11 16 17 0
11 -17 0
-16 -17 0
-7 16 18 0
7 -18 0
-16 -18 0
-18 8 19 0
18 -19 0
-8 -19 0
19 -10 20 0
-19 -20 0
10 -20 0
17 20 21 0
-17 -21 0
-20 -21 0
-21 22 23 0
21 -23 0
-22 -23 0
-22 -10 24 0
22 -24 0
10 -24 0
-25 -8 26 0
25 -26 0
8 -26 0
24 26 27 0
-24 -27 0
-26 -27 0
-27 19 28 0
27 -28 0
-19 -28 0
-29 -1 30 0
29 -30 0
1 -30 0
-31 -2 32 0
31 -32 0
2 -32 0
30 32 33 0
-30 -33 0
-32 -33 0
-34 -4 35 0
34 -35 0
4 -35 0
-36 -5 37 0
36 -37 0
5 -37 0
35 37 38 0
-35 -38 0
-37 -38 0
36 5 39 0
-36 -39 0
-5 -39 0
38 39 40 0
-38 -40 0
-39 -40 0
29 1 41 0
-29 -41 0
-1 -41 0
-40 41 42 0
40 -42 0
-41 -42 0
-33 42 43 0
33 -43 0
-42 -43 0
31 2 44 0
-31 -44 0
-2 -44 0
43 44 45 0
-43 -45 0
-44 -45 0
18 -8 46 0
-18 -46 0
8 -46 0
46 25 47 0
-46 -47 0
-25 -47 0
-45 47 48 0
45 -48 0
-47 -48 0
-28 48 49 0
28 -49 0
-48 -49 0
23 49 50 0
-23 -50 0
-49 -50 0
15 50 51 0
-15 -51 0
-50 -51 0
-11 -16 52 0
11 -52 0
16 -52 0
-52 53 54 0
52 -54 0
-53 -54 0
-51 54 55 0
51 -55 0
-54 -55 0
-15 -50 56 0
15 -56 0
50 -56 0
-54 -56 57 0
54 -57 0
56 -57 0
55 57 58 0
-55 -58 0
-57 -58 0
52 -53 59 0
-52 -59 0
53 -59 0
-59 56 60 0
59 -60 0
-56 -60 0
-58 60 61 0
58 -61 0
-60 -61 0
-61 0
